MoS2 - monolayer (TP phase)             
   3.18469121072704     
     0.5000000000000000   -0.8660254037844386    0.0000000000000000
     0.5000000000000000    0.8660254037844386    0.0000000000000000
     0.0000000000000000    0.0000000000000000   10.0000000000000000
   Mo   S 
     1     2
Direct
  0.3333333333333357  0.6666666666666643  0.5000000000000000
  0.6666666666666643  0.3333333333333357  0.4509517069274125
  0.6666666666666643  0.3333333333333357  0.5490482930725875
 
  0.00000000E+00  0.00000000E+00  0.00000000E+00
  0.00000000E+00  0.00000000E+00  0.00000000E+00
  0.00000000E+00  0.00000000E+00  0.00000000E+00
